(set-info :smt-lib-version 2.6)
(set-logic UF)
(set-info :source |Benchmarks from the paper: "Extending Sledgehammer with SMT Solvers" by Jasmin Blanchette, Sascha Bohme, and Lawrence C. Paulson, CADE 2011.  Translated to SMT2 by Andrew Reynolds and Morgan Deters.|)
(set-info :category "industrial")
(set-info :status unsat)
(declare-sort S1 0)
(declare-sort S2 0)
(declare-sort S3 0)
(declare-sort S4 0)
(declare-sort S5 0)
(declare-sort S6 0)
(declare-sort S7 0)
(declare-sort S8 0)
(declare-sort S9 0)
(declare-sort S10 0)
(declare-sort S11 0)
(declare-sort S12 0)
(declare-sort S13 0)
(declare-sort S14 0)
(declare-sort S15 0)
(declare-sort S16 0)
(declare-sort S17 0)
(declare-sort S18 0)
(declare-sort S19 0)
(declare-fun f1 () S1)
(declare-fun f2 () S1)
(declare-fun f3 (S2 S3 S4 S5 S7) S1)
(declare-fun f4 (S8 S6) S7)
(declare-fun f5 () S8)
(declare-fun f6 (S2 S6 S6 S7 S6) S1)
(declare-fun f7 (S2 S7 S7) S1)
(declare-fun f8 (S9 S5) S5)
(declare-fun f9 (S10 S6) S9)
(declare-fun f10 (S11 S6) S10)
(declare-fun f11 (S12 S5) S11)
(declare-fun f12 () S12)
(declare-fun f13 () S7)
(declare-fun f14 () S7)
(declare-fun f15 () S2)
(declare-fun f16 () S3)
(declare-fun f17 () S4)
(declare-fun f18 (S13 S14) S5)
(declare-fun f19 () S13)
(declare-fun f20 () S14)
(declare-fun f21 () S6)
(declare-fun f22 () S6)
(declare-fun f23 () S5)
(declare-fun f24 () S7)
(declare-fun f25 (S2 S4 S15) S1)
(declare-fun f26 (S3 S16) S15)
(declare-fun f27 () S16)
(declare-fun f28 () S3)
(declare-fun f29 () S5)
(declare-fun f30 (S3 S3) S1)
(declare-fun f31 (S17 S18) S1)
(declare-fun f32 (S19 S19) S17)
(declare-fun f33 (S5 S15) S19)
(declare-fun f34 () S16)
(declare-fun f35 (S2) S18)
(assert (not (= f1 f2)))
(assert (forall ((?v0 S2) (?v1 S3) (?v2 S4) (?v3 S5) (?v4 S6) (?v5 S6) (?v6 S7) (?v7 S6) (?v8 S5) (?v9 S7)) (=> (= (f3 ?v0 ?v1 ?v2 ?v3 (f4 f5 ?v4)) f1) (=> (= (f6 ?v0 ?v4 ?v5 ?v6 ?v7) f1) (=> (= (f3 ?v0 ?v1 ?v2 ?v8 ?v9) f1) (=> (= (f7 ?v0 ?v9 ?v6) f1) (= (f3 ?v0 ?v1 ?v2 (f8 (f9 (f10 (f11 f12 ?v3) ?v5) ?v7) ?v8) f13) f1)))))))
(assert (forall ((?v0 S2) (?v1 S7) (?v2 S7) (?v3 S7)) (=> (= (f7 ?v0 ?v1 ?v2) f1) (=> (= (f7 ?v0 ?v2 ?v3) f1) (= (f7 ?v0 ?v1 ?v3) f1)))))
(assert (forall ((?v0 S2) (?v1 S3) (?v2 S4) (?v3 S5) (?v4 S6) (?v5 S6) (?v6 S5) (?v7 S7)) (=> (= (f3 ?v0 ?v1 ?v2 (f8 (f9 (f10 (f11 f12 ?v3) ?v4) ?v5) ?v6) ?v7) f1) (=> (forall ((?v8 S6) (?v9 S7) (?v10 S7)) (=> (= ?v7 f13) (=> (= (f3 ?v0 ?v1 ?v2 ?v3 (f4 f5 ?v8)) f1) (=> (= (f6 ?v0 ?v8 ?v4 ?v9 ?v5) f1) (=> (= (f3 ?v0 ?v1 ?v2 ?v6 ?v10) f1) (=> (= (f7 ?v0 ?v10 ?v9) f1) false)))))) (=> (forall ((?v8 S7)) (=> (= ?v7 f13) (=> (= (f3 ?v0 ?v1 ?v2 ?v3 f14) f1) (=> (= (f3 ?v0 ?v1 ?v2 ?v6 ?v8) f1) false)))) false)))))
(assert (= (f3 f15 f16 f17 (f8 (f9 (f10 (f11 f12 (f18 f19 f20)) f21) f22) f23) f24) f1))
(assert (forall ((?v0 S2) (?v1 S3) (?v2 S4) (?v3 S5) (?v4 S5) (?v5 S7) (?v6 S6) (?v7 S6)) (=> (= (f3 ?v0 ?v1 ?v2 ?v3 f14) f1) (=> (= (f3 ?v0 ?v1 ?v2 ?v4 ?v5) f1) (= (f3 ?v0 ?v1 ?v2 (f8 (f9 (f10 (f11 f12 ?v3) ?v6) ?v7) ?v4) f13) f1)))))
(assert (forall ((?v0 S2) (?v1 S7)) (= (f7 ?v0 ?v1 ?v1) f1)))
(assert (= f24 f13))
(assert (forall ((?v0 S4) (?v1 S7)) (=> (= (f25 f15 ?v0 (f26 f16 f27)) f1) (=> (= (f3 f15 f16 ?v0 f23 ?v1) f1) (exists ((?v2 S7)) (and (= (f3 f15 f28 ?v0 f29 ?v2) f1) (= (f7 f15 ?v2 ?v1) f1)))))))
(assert (= (f25 f15 f17 (f26 f16 f27)) f1))
(assert (forall ((?v0 S2) (?v1 S3) (?v2 S4) (?v3 S5) (?v4 S7) (?v5 S3)) (=> (= (f3 ?v0 ?v1 ?v2 ?v3 ?v4) f1) (=> (= (f30 ?v1 ?v5) f1) (= (f3 ?v0 ?v5 ?v2 ?v3 ?v4) f1)))))
(assert (= (f31 (f32 (f33 f23 (f26 f16 f27)) (f33 f29 (f26 f28 f34))) (f35 f15)) f1))
(assert (forall ((?v0 S5) (?v1 S3) (?v2 S16) (?v3 S5) (?v4 S3) (?v5 S16) (?v6 S2)) (=> (= (f31 (f32 (f33 ?v0 (f26 ?v1 ?v2)) (f33 ?v3 (f26 ?v4 ?v5))) (f35 ?v6)) f1) (= (f30 ?v1 ?v4) f1))))
(assert (not (=> (= (f3 f15 f16 f17 (f8 (f9 (f10 (f11 f12 (f18 f19 f20)) f21) f22) f23) f24) f1) (exists ((?v0 S7)) (and (= (f3 f15 f28 f17 (f8 (f9 (f10 (f11 f12 (f18 f19 f20)) f21) f22) f29) ?v0) f1) (= (f7 f15 ?v0 f24) f1))))))
(check-sat)
(exit)
